(declare-const p0_0 Bool)
(declare-const p0_1 Bool)
(declare-const p0_2 Bool)
(declare-const p1_0 Bool)
(declare-const p1_1 Bool)
(declare-const p1_2 Bool)
(declare-const p2_0 Bool)
(declare-const p2_1 Bool)
(declare-const p2_2 Bool)
(declare-const p3_0 Bool)
(declare-const p3_1 Bool)
(declare-const p3_2 Bool)
(declare-const p4_0 Bool)
(declare-const p4_1 Bool)
(declare-const p4_2 Bool)

(assert (or p0_0 p0_1 p0_2))
(assert (or p1_0 p1_1 p1_2))
(assert (or p2_0 p2_1 p2_2))
(assert (or p3_0 p3_1 p3_2))
(assert (or p4_0 p4_1 p4_2))

(assert (or (not p0_0) (not p1_0)))
(assert (or (not p0_0) (not p2_0)))
(assert (or (not p0_1) (not p1_1)))
(assert (or (not p0_1) (not p2_1)))
(assert (or (not p0_2) (not p1_2)))
(assert (or (not p0_2) (not p2_2)))

(assert (or (not p1_0) (not p2_0)))
(assert (or (not p1_0) (not p3_0)))
(assert (or (not p1_1) (not p2_1)))
(assert (or (not p1_1) (not p3_1)))
(assert (or (not p1_1) (not p4_1)))
(assert (or (not p1_2) (not p2_2)))
(assert (or (not p1_2) (not p3_2)))
(assert (or (not p1_2) (not p4_2)))

(assert (or (not p2_0) (not p3_0)))
(assert (or (not p2_0) (not p4_0)))
(assert (or (not p2_1) (not p3_1)))
(assert (or (not p2_1) (not p4_1)))
(assert (or (not p2_2) (not p3_2)))
(assert (or (not p2_2) (not p4_2)))

(check-sat)